PROBLEM NAME: small_1_Uncorrelated_n14_m39_c1
KNAPSACK DATA TYPE:
DIMENSION: 14
NUMBER OF ITEMS: 39
CAPACITY OF KNAPSACK: 1869
MIN SPEED: 0.1
MAX SPEED: 1.0
RENTING RATIO: 1.0
EDGE_WEIGHT_TYPE: CEIL_2D
NODE_COORD_SECTION	(INDEX, X, Y): 
1	766	233
2	894	117
3	506	926
4	535	283
5	463	585
6	908	370
7	103	987
8	860	228
9	101	156
10	484	770
11	889	132
12	497	601
13	542	567
14	650	594
ITEMS SECTION	(INDEX, PROFIT, WEIGHT, ASSIGNED NODE NUMBER): 
1	821	580	2
2	939	470	2
3	221	761	2
4	336	287	3
5	781	417	3
6	201	786	3
7	40	494	4
8	313	629	4
9	664	281	4
10	628	711	5
11	686	770	5
12	496	220	5
13	522	144	6
14	349	407	6
15	897	19	6
16	23	679	7
17	322	831	7
18	616	842	7
19	840	158	8
20	366	662	8
21	406	833	8
22	838	261	9
23	17	57	9
24	524	725	9
25	833	287	10
26	484	732	10
27	539	485	10
28	338	839	11
29	186	837	11
30	178	14	11
31	734	562	12
32	506	533	12
33	782	621	12
34	857	99	13
35	721	621	13
36	344	502	13
37	918	916	14
38	244	647	14
39	5	848	14
